id: 1211
name: ns1111636
group: miplib2010
method: 1

Gurobi 7.0.2 (linux64, Matlab) logging started Fri Apr 20 03:28:10 2018


Gurobi 7.0.2 (linux64) logging started Fri Apr 20 03:28:10 2018

Optimize a model with 13895 rows, 360822 columns and 568444 nonzeros
Coefficient statistics:
  Matrix range     [1e+00, 2e+02]
  Objective range  [4e+00, 1e+01]
  Bounds range     [1e+00, 1e+00]
  RHS range        [1e+00, 8e+03]
Presolve removed 1704 rows and 285600 columns
Presolve time: 0.14s
Presolved: 12191 rows, 75222 columns, 286902 nonzeros

Iteration    Objective       Primal Inf.    Dual Inf.      Time
       0    0.0000000e+00   7.392000e+03   0.000000e+00      0s
   23153    9.6250000e+01   0.000000e+00   0.000000e+00      2s

Solved in 23153 iterations and 1.62 seconds
Optimal objective  9.625000000e+01
status: OPTIMAL
